Academic license - for non-commercial use only
Optimize a model with 700 rows, 600 columns and 26223 nonzeros
Variable types: 0 continuous, 600 integer (600 binary)
Coefficient statistics:
  Matrix range     [1e+00, 2e+01]
  Objective range  [1e+00, 2e+01]
  Bounds range     [1e+00, 1e+00]
  RHS range        [1e+00, 4e+01]
Presolve removed 305 rows and 213 columns
Presolve time: 0.11s
Presolved: 395 rows, 387 columns, 11918 nonzeros
Variable types: 0 continuous, 387 integer (387 binary)
Found heuristic solution: objective 47.0000000

Root relaxation: objective 3.485899e+01, 22 iterations, 0.00 seconds

    Nodes    |    Current Node    |     Objective Bounds      |     Work
 Expl Unexpl |  Obj  Depth IntInf | Incumbent    BestBd   Gap | It/Node Time

     0     0   34.85899    0   10   47.00000   34.85899  25.8%     -    0s
H    0     0                      46.0000000   34.85899  24.2%     -    0s
     0     0   38.39841    0   13   46.00000   38.39841  16.5%     -    0s
     0     0   38.39841    0   10   46.00000   38.39841  16.5%     -    0s
H    0     0                      44.0000000   38.39841  12.7%     -    0s
     0     0   38.39841    0   13   44.00000   38.39841  12.7%     -    0s
     0     0   39.74220    0   12   44.00000   39.74220  9.68%     -    0s
     0     0   42.11111    0    2   44.00000   42.11111  4.29%     -    0s
     0     0   42.50000    0    6   44.00000   42.50000  3.41%     -    0s
     0     0     cutoff    0        44.00000   44.00000  0.00%     -    0s

Cutting planes:
  Clique: 2

Explored 1 nodes (172 simplex iterations) in 0.31 seconds
Thread count was 8 (of 8 available processors)

Solution count 3: 44 46 47 

Optimal solution found (tolerance 1.00e-04)
Best objective 4.400000000000e+01, best bound 4.400000000000e+01, gap 0.0000%

